0
Node Left Objective IInf Best_Integer Best_Bound ItCnt Gap
0+ 0 nan nan 883.5817 0.0000 nan 100.00%
0+ 0 nan nan 639.6325 0.0000 nan 100.00%
0 0 262.6193 7 639.6325 262.6193 42 58.94%
0 0 288.8460 8 639.6325 Cuts:9 67 54.84%
0+ 0 nan nan 462.8177 288.8460 nan 37.59%
0 0 305.8789 9 462.8177 Cuts:12 91 33.91%
0 0 318.2257 8 462.8177 Cuts:6 115 31.24%
0 0 324.9774 9 462.8177 Cuts:11 129 29.78%
0+ 0 nan nan 415.0905 324.9774 nan 21.71%
0 0 329.3181 9 415.0905 Cuts:9 143 20.66%
0 0 329.9961 9 415.0905 Disjcuts:2 149 20.50%
0 0 330.1324 8 415.0905 Disjcuts:1 152 20.47%
0 2 330.1324 8 415.0905 330.1489 152 20.46%
CPXPARAM_MIP_Cuts_Gomory-Disjunctive:Gomory 1
CPXPARAM_MIP_Cuts_Gomory-Disjunctive:Disjunctive 9
1
Node Left Objective IInf Best_Integer Best_Bound ItCnt Gap
0+ 0 nan nan 883.5817 0.0000 nan 100.00%
0 0 integral 0 262.6193 262.6193 40 0.00%
CPXPARAM_MIP_Cuts_Gomory-Disjunctive:Gomory 0
CPXPARAM_MIP_Cuts_Gomory-Disjunctive:Disjunctive 0
2
Node Left Objective IInf Best_Integer Best_Bound ItCnt Gap
0+ 0 nan nan 883.5817 0.0000 nan 100.00%
0+ 0 nan nan 639.6325 0.0000 nan 100.00%
0 0 269.4766 5 639.6325 269.4766 42 57.87%
0 0 279.5547 7 639.6325 Cuts:7 54 56.29%
0+ 0 nan nan 583.4780 279.5547 nan 52.09%
0 0 304.5945 7 583.4780 Cuts:9 66 47.80%
0+ 0 nan nan 423.2225 304.5945 nan 28.03%
0 0 319.5845 8 423.2225 Cuts:7 87 24.49%
0+ 0 nan nan 415.0905 319.5845 nan 23.01%
0 0 327.3465 8 415.0905 Cuts:11 105 21.14%
0 0 334.5675 8 415.0905 Cuts:3 118 19.40%
0 0 334.7849 8 415.0905 Disjcuts:3 124 19.35%
0 0 335.8994 7 415.0905 Disjcuts:2 132 19.08%
0 0 336.0930 7 415.0905 Cuts:2 136 19.03%
0 2 336.7060 6 415.0905 336.8576 136 18.85%
CPXPARAM_MIP_Cuts_Gomory-Disjunctive:Gomory 1
CPXPARAM_MIP_Cuts_Gomory-Disjunctive:Disjunctive 9
3
Node Left Objective IInf Best_Integer Best_Bound ItCnt Gap
0+ 0 nan nan 883.5817 0.0000 nan 100.00%
0 0 314.8220 1 883.5817 314.8220 38 64.37%
0+ 0 nan nan 315.1239 314.8220 nan 0.10%
0 0 integral 0 314.8876 Fract:1 40 0.00%
0 0 cutoff 314.8876 314.8876 40 0.00% 0
CPXPARAM_MIP_Cuts_Gomory-Disjunctive:Gomory 1
CPXPARAM_MIP_Cuts_Gomory-Disjunctive:Disjunctive 0
4
Node Left Objective IInf Best_Integer Best_Bound ItCnt Gap
0+ 0 nan nan 693.8542 0.0000 nan 100.00%
0+ 0 nan nan 634.5912 0.0000 nan 100.00%
0 0 405.5114 7 634.5912 405.5114 50 36.10%
0 0 410.2300 9 634.5912 Cuts:8 64 35.36%
0+ 0 nan nan 455.9855 410.2300 nan 10.03%
0 0 417.1787 9 455.9855 Cuts:10 77 8.51%
0 0 420.4595 7 455.9855 Cuts:9 90 7.79%
0 0 421.3646 8 455.9855 Cuts:5 97 7.59%
0 0 423.0949 7 455.9855 Cuts:8 111 7.21%
0+ 0 nan nan 441.1644 423.0949 nan 4.10%
0 0 424.0207 7 441.1644 Disjcuts:1 117 3.89%
0 0 cutoff 441.1644 424.0207 131 3.89% 0
CPXPARAM_MIP_Cuts_Gomory-Disjunctive:Gomory 4
CPXPARAM_MIP_Cuts_Gomory-Disjunctive:Disjunctive 4
5
Node Left Objective IInf Best_Integer Best_Bound ItCnt Gap
0+ 0 nan nan 693.8542 0.0000 nan 100.00%
0 0 405.5114 1 693.8542 405.5114 49 41.56%
0+ 0 nan nan 407.3057 405.5114 nan 0.44%
0 0 integral 0 405.9187 405.9187 52 0.00%
CPXPARAM_MIP_Cuts_Gomory-Disjunctive:Gomory 0
CPXPARAM_MIP_Cuts_Gomory-Disjunctive:Disjunctive 0
6
Node Left Objective IInf Best_Integer Best_Bound ItCnt Gap
0+ 0 nan nan 693.8542 0.0000 nan 100.00%
0+ 0 nan nan 652.0517 0.0000 nan 100.00%
0+ 0 nan nan 648.3061 0.0000 nan 100.00%
0 0 405.5114 7 648.3061 405.5114 44 37.45%
0 0 412.6168 9 648.3061 Cuts:8 54 36.35%
0+ 0 nan nan 449.4074 412.6168 nan 8.19%
0 0 416.7749 9 449.4074 Cuts:15 68 7.26%
0 0 419.2781 9 449.4074 Cuts:10 86 6.70%
0 0 420.5589 9 449.4074 Cuts:10 96 6.42%
0 0 421.2343 9 449.4074 Cuts:9 106 6.27%
0 0 421.4201 9 449.4074 Cuts:3 114 6.23%
0+ 0 nan nan 441.1644 421.4201 nan 4.48%
0 0 421.5882 8 441.1644 Disjcuts:2 120 4.44%
0 0 421.6094 8 441.1644 Disjcuts:1 122 4.43%
0 2 421.9821 7 441.1644 422.1379 122 4.31%
CPXPARAM_MIP_Cuts_Gomory-Disjunctive:Gomory 2
CPXPARAM_MIP_Cuts_Gomory-Disjunctive:Disjunctive 8
7
Node Left Objective IInf Best_Integer Best_Bound ItCnt Gap
0+ 0 nan nan 693.8542 0.0000 nan 100.00%
0 0 integral 0 425.0746 425.0746 34 0.00%
CPXPARAM_MIP_Cuts_Gomory-Disjunctive:Gomory 0
CPXPARAM_MIP_Cuts_Gomory-Disjunctive:Disjunctive 0
8
Node Left Objective IInf Best_Integer Best_Bound ItCnt Gap
0+ 0 nan nan 845.6683 0.0000 nan 100.00%
0+ 0 nan nan 648.8417 0.0000 nan 100.00%
0 0 484.8467 7 648.8417 484.8467 54 25.28%
0 0 509.7426 9 648.8417 Cuts:8 66 21.44%
0+ 0 nan nan 626.4130 509.7426 nan 18.63%
0 0 518.6715 9 626.4130 Cuts:13 78 17.20%
0 0 527.3607 9 626.4130 Cuts:14 98 15.81%
0 0 531.5470 9 626.4130 Cuts:10 112 15.14%
0 0 533.8480 7 626.4130 Cuts:7 125 14.78%
0 0 534.0262 7 626.4130 Disjcuts:1 129 14.75%
0 0 534.5524 9 626.4130 Disjcuts:3 132 14.66%
0 0 535.3269 9 626.4130 Cuts:3 139 14.54%
0+ 0 nan nan 589.5104 535.3269 nan 9.19%
0 2 538.6831 8 589.5104 538.7571 139 8.61%
CPXPARAM_MIP_Cuts_Gomory-Disjunctive:Gomory 2
CPXPARAM_MIP_Cuts_Gomory-Disjunctive:Disjunctive 9
9
Node Left Objective IInf Best_Integer Best_Bound ItCnt Gap
0+ 0 nan nan 845.6683 0.0000 nan 100.00%
0 0 integral 0 484.8467 484.8467 43 0.00%
CPXPARAM_MIP_Cuts_Gomory-Disjunctive:Gomory 0
CPXPARAM_MIP_Cuts_Gomory-Disjunctive:Disjunctive 0
10
Node Left Objective IInf Best_Integer Best_Bound ItCnt Gap
0+ 0 nan nan 845.6683 0.0000 nan 100.00%
0 0 498.6071 5 845.6683 498.6071 38 41.04%
0+ 0 nan nan 697.1349 498.6071 nan 28.48%
0 0 504.9148 8 697.1349 Cuts:8 49 27.57%
0+ 0 nan nan 648.8417 504.9148 nan 22.18%
0 0 520.4711 8 648.8417 Cuts:11 63 19.78%
0+ 0 nan nan 595.8307 520.4711 nan 12.65%
0 0 526.5275 8 595.8307 Cuts:8 78 11.63%
0 0 530.1505 9 595.8307 Cuts:8 93 11.02%
0 0 535.8545 8 595.8307 Cuts:9 110 10.07%
0+ 0 nan nan 589.5104 535.8545 nan 9.10%
0 0 536.9475 9 589.5104 Cuts:2 117 8.92%
0 0 537.1500 9 589.5104 Disjcuts:2 119 8.88%
0 2 538.2506 8 589.5104 538.6319 119 8.63%
CPXPARAM_MIP_Cuts_Gomory-Disjunctive:Gomory 1
CPXPARAM_MIP_Cuts_Gomory-Disjunctive:Disjunctive 8
11
Node Left Objective IInf Best_Integer Best_Bound ItCnt Gap
0+ 0 nan nan 845.6683 0.0000 nan 100.00%
0 0 integral 0 561.1585 561.1585 45 0.00%
CPXPARAM_MIP_Cuts_Gomory-Disjunctive:Gomory 0
CPXPARAM_MIP_Cuts_Gomory-Disjunctive:Disjunctive 0
12
Node Left Objective IInf Best_Integer Best_Bound ItCnt Gap
0+ 0 nan nan 656.4681 0.0000 nan 100.00%
0+ 0 nan nan 534.4657 0.0000 nan 100.00%
0 0 386.2283 7 534.4657 386.2283 47 27.74%
0 0 391.1700 9 534.4657 Cuts:7 64 26.81%
0+ 0 nan nan 521.2586 391.1700 nan 24.96%
0 0 397.9503 9 521.2586 Cuts:12 69 23.66%
0+ 0 nan nan 518.5366 397.9503 nan 23.26%
0 0 406.1983 9 518.5366 Disjcuts:7 80 21.66%
0+ 0 nan nan 474.3633 406.1983 nan 14.37%
0 0 413.0255 9 474.3633 Cuts:10 97 12.93%
0 0 417.7289 8 474.3633 Cuts:11 110 11.94%
0 0 418.0980 8 474.3633 Fract:1 113 11.86%
0 0 418.4048 9 474.3633 Disjcuts:1 116 11.80%
0 2 418.4048 9 474.3633 418.6435 116 11.75%
CPXPARAM_MIP_Cuts_Gomory-Disjunctive:Gomory 4
CPXPARAM_MIP_Cuts_Gomory-Disjunctive:Disjunctive 6
13
Node Left Objective IInf Best_Integer Best_Bound ItCnt Gap
0+ 0 nan nan 656.4681 0.0000 nan 100.00%
0 0 integral 0 389.1110 389.1110 45 0.00%
CPXPARAM_MIP_Cuts_Gomory-Disjunctive:Gomory 0
CPXPARAM_MIP_Cuts_Gomory-Disjunctive:Disjunctive 0
14
Node Left Objective IInf Best_Integer Best_Bound ItCnt Gap
0+ 0 nan nan 656.4681 0.0000 nan 100.00%
0+ 0 nan nan 534.4657 0.0000 nan 100.00%
0 0 386.2283 7 534.4657 386.2283 36 27.74%
0 0 391.4708 9 534.4657 Cuts:8 55 26.75%
0+ 0 nan nan 521.2586 391.4708 nan 24.90%
0 0 397.8640 9 521.2586 Cuts:10 60 23.67%
0+ 0 nan nan 518.5366 397.8640 nan 23.27%
0 0 408.1704 9 518.5366 Cuts:10 78 21.28%
0+ 0 nan nan 474.3633 408.1704 nan 13.95%
0 0 414.5125 9 474.3633 Cuts:9 94 12.62%
0 0 417.1019 8 474.3633 Cuts:7 107 12.07%
0 0 417.2313 9 474.3633 Disjcuts:1 112 12.04%
0 0 417.3454 9 474.3633 Disjcuts:1 114 12.02%
0+ 0 nan nan 465.9177 417.3454 nan 10.43%
0 0 417.4182 9 465.9177 Disjcuts:1 116 10.41%
0 2 417.4182 9 465.9177 417.8835 116 10.31%
CPXPARAM_MIP_Cuts_Gomory-Disjunctive:Gomory 3
CPXPARAM_MIP_Cuts_Gomory-Disjunctive:Disjunctive 10
15
Node Left Objective IInf Best_Integer Best_Bound ItCnt Gap
0+ 0 nan nan 656.4681 0.0000 nan 100.00%
0 0 integral 0 410.1756 410.1756 35 0.00%
CPXPARAM_MIP_Cuts_Gomory-Disjunctive:Gomory 0
CPXPARAM_MIP_Cuts_Gomory-Disjunctive:Disjunctive 0
16
Node Left Objective IInf Best_Integer Best_Bound ItCnt Gap
0+ 0 nan nan 673.4267 0.0000 nan 100.00%
0+ 0 nan nan 482.5302 0.0000 nan 100.00%
0 0 417.5617 7 482.5302 417.5617 54 13.46%
0 0 420.1512 9 482.5302 Fract:6 65 12.93%
0+ 0 nan nan 475.1344 420.1512 nan 11.57%
0 0 425.5001 8 475.1344 Cuts:14 83 10.45%
0+ 0 nan nan 465.5226 425.5001 nan 8.60%
0 0 429.4528 9 465.5226 Cuts:12 98 7.75%
0 0 430.3731 8 465.5226 Cuts:9 109 7.55%
0 0 430.4825 8 465.5226 Cuts:6 115 7.53%
0 0 430.7108 9 465.5226 Cuts:4 122 7.48%
0 0 430.8628 8 465.5226 Cuts:2 125 7.45%
0 0 430.8655 9 465.5226 Disjcuts:2 127 7.44%
0 2 430.9767 8 465.5226 431.4000 127 7.33%
CPXPARAM_MIP_Cuts_Gomory-Disjunctive:Gomory 3
CPXPARAM_MIP_Cuts_Gomory-Disjunctive:Disjunctive 8
17
Node Left Objective IInf Best_Integer Best_Bound ItCnt Gap
0+ 0 nan nan 673.4267 0.0000 nan 100.00%
0 0 integral 0 425.9937 425.9937 45 0.00%
CPXPARAM_MIP_Cuts_Gomory-Disjunctive:Gomory 0
CPXPARAM_MIP_Cuts_Gomory-Disjunctive:Disjunctive 0
18
Node Left Objective IInf Best_Integer Best_Bound ItCnt Gap
0+ 0 nan nan 673.4267 0.0000 nan 100.00%
0 0 423.0032 5 673.4267 423.0032 39 37.19%
0+ 0 nan nan 591.6412 423.0032 nan 28.50%
0 0 424.6875 7 591.6412 Cuts:7 51 28.22%
0+ 0 nan nan 465.5226 424.6875 nan 8.77%
0 0 427.2742 8 465.5226 Cuts:8 58 8.22%
0 0 427.7125 7 465.5226 Cuts:10 72 8.12%
0 0 431.0672 8 465.5226 Cuts:11 94 7.40%
0 0 432.6329 7 465.5226 Cuts:8 106 7.07%
0 0 433.2353 6 465.5226 Cuts:7 112 6.94%
0 2 433.8931 5 465.5226 433.8996 112 6.79%
CPXPARAM_MIP_Cuts_Gomory-Disjunctive:Gomory 1
CPXPARAM_MIP_Cuts_Gomory-Disjunctive:Disjunctive 6
19
Node Left Objective IInf Best_Integer Best_Bound ItCnt Gap
0+ 0 nan nan 673.4267 0.0000 nan 100.00%
0+ 0 nan nan 448.7922 0.0000 nan 100.00%
0 0 integral 0 446.2379 446.2379 37 0.00%
CPXPARAM_MIP_Cuts_Gomory-Disjunctive:Gomory 0
CPXPARAM_MIP_Cuts_Gomory-Disjunctive:Disjunctive 0
20
Node Left Objective IInf Best_Integer Best_Bound ItCnt Gap
0+ 0 nan nan 525.1284 0.0000 nan 100.00%
0+ 0 nan nan 499.7053 0.0000 nan 100.00%
0 0 283.8374 7 499.7053 283.8374 45 43.20%
0+ 0 nan nan 335.4671 283.8374 nan 15.39%
0 0 286.5261 9 335.4671 Cuts:6 55 14.59%
0 0 291.9810 8 335.4671 Cuts:10 64 12.96%
0+ 0 nan nan 315.2212 291.9810 nan 7.37%
0 0 296.9879 9 315.2212 Cuts:9 76 5.78%
0 0 299.6014 9 315.2212 Cuts:8 83 4.96%
0 0 301.0323 6 315.2212 Disjcuts:3 93 4.50%
0 2 301.3002 4 315.2212 301.4087 93 4.38%
CPXPARAM_MIP_Cuts_Gomory-Disjunctive:Gomory 1
CPXPARAM_MIP_Cuts_Gomory-Disjunctive:Disjunctive 4
21
Node Left Objective IInf Best_Integer Best_Bound ItCnt Gap
0+ 0 nan nan 525.1284 0.0000 nan 100.00%
0 0 integral 0 283.8374 283.8374 44 0.00%
CPXPARAM_MIP_Cuts_Gomory-Disjunctive:Gomory 0
CPXPARAM_MIP_Cuts_Gomory-Disjunctive:Disjunctive 0
22
Node Left Objective IInf Best_Integer Best_Bound ItCnt Gap
0+ 0 nan nan 525.1284 0.0000 nan 100.00%
0+ 0 nan nan 502.7786 0.0000 nan 100.00%
0 0 286.9244 7 502.7786 286.9244 33 42.93%
0+ 0 nan nan 406.3795 286.9244 nan 29.39%
0 0 295.3304 8 406.3795 Cuts:9 45 27.33%
0+ 0 nan nan 392.9654 295.3304 nan 24.85%
0 0 302.3762 9 392.9654 Cuts:9 53 23.05%
0+ 0 nan nan 331.4363 302.3762 nan 8.77%
0 0 303.0126 8 331.4363 Disjcuts:3 59 8.58%
0 0 304.2656 9 331.4363 Disjcuts:3 64 8.20%
0+ 0 nan nan 315.4732 304.2656 nan 3.55%
0 0 305.7708 8 315.4732 Disjcuts:2 71 3.08%
0 0 305.8876 8 315.4732 Disjcuts:2 77 3.04%
0 0 306.2112 8 315.4732 Disjcuts:1 79 2.94%
0 2 307.3903 7 315.4732 307.3910 79 2.56%
CPXPARAM_MIP_Cuts_Gomory-Disjunctive:Gomory 0
CPXPARAM_MIP_Cuts_Gomory-Disjunctive:Disjunctive 5
23
Node Left Objective IInf Best_Integer Best_Bound ItCnt Gap
0+ 0 nan nan 525.1284 0.0000 nan 100.00%
0 0 integral 0 293.4740 293.4740 26 0.00%
CPXPARAM_MIP_Cuts_Gomory-Disjunctive:Gomory 0
CPXPARAM_MIP_Cuts_Gomory-Disjunctive:Disjunctive 0
24
Node Left Objective IInf Best_Integer Best_Bound ItCnt Gap
0+ 0 nan nan 549.2671 0.0000 nan 100.00%
0+ 0 nan nan 473.7492 0.0000 nan 100.00%
0 0 363.2658 7 473.7492 363.2658 42 23.32%
0+ 0 nan nan 458.3613 363.2658 nan 20.75%
0 0 366.2716 9 458.3613 Cuts:8 58 20.09%
0+ 0 nan nan 444.0143 366.2716 nan 17.51%
0 0 368.7913 9 444.0143 Cuts:6 69 16.94%
0+ 0 nan nan 399.6484 368.7913 nan 7.72%
0 0 371.9429 7 399.6484 Cuts:6 91 6.93%
0 0 373.9497 7 399.6484 Cuts:7 107 6.43%
0 0 376.3290 8 399.6484 Cuts:6 116 5.83%
0 2 376.3290 8 399.6484 377.1398 116 5.63%
CPXPARAM_MIP_Cuts_Gomory-Disjunctive:Gomory 1
CPXPARAM_MIP_Cuts_Gomory-Disjunctive:Disjunctive 6
25
Node Left Objective IInf Best_Integer Best_Bound ItCnt Gap
0+ 0 nan nan 549.2671 0.0000 nan 100.00%
0 0 integral 0 372.4575 372.4575 43 0.00%
CPXPARAM_MIP_Cuts_Gomory-Disjunctive:Gomory 0
CPXPARAM_MIP_Cuts_Gomory-Disjunctive:Disjunctive 0
26
Node Left Objective IInf Best_Integer Best_Bound ItCnt Gap
0+ 0 nan nan 549.2671 0.0000 nan 100.00%
0+ 0 nan nan 476.4585 0.0000 nan 100.00%
0 0 372.1627 6 476.4585 372.1627 30 21.89%
0 0 377.4827 6 476.4585 Cuts:6 41 20.77%
0+ 0 nan nan 404.2019 377.4827 nan 6.61%
0 0 381.4449 6 404.2019 Cuts:9 50 5.63%
0+ 0 nan nan 399.6484 381.4449 nan 4.55%
0 0 383.5356 7 399.6484 Cuts:11 59 4.03%
0 0 385.8305 7 399.6484 Cuts:9 69 3.46%
0 0 386.5270 7 399.6484 Cuts:7 79 3.28%
0 2 386.5473 6 399.6484 388.0601 79 2.90%
CPXPARAM_MIP_Cuts_Gomory-Disjunctive:Gomory 2
CPXPARAM_MIP_Cuts_Gomory-Disjunctive:Disjunctive 5
27
Node Left Objective IInf Best_Integer Best_Bound ItCnt Gap
0+ 0 nan nan 549.2671 0.0000 nan 100.00%
0 0 integral 0 385.0255 385.0255 33 0.00%
CPXPARAM_MIP_Cuts_Gomory-Disjunctive:Gomory 0
CPXPARAM_MIP_Cuts_Gomory-Disjunctive:Disjunctive 0
28
Node Left Objective IInf Best_Integer Best_Bound ItCnt Gap
0+ 0 nan nan 941.7205 0.0000 nan 100.00%
0+ 0 nan nan 872.5219 0.0000 nan 100.00%
0 0 601.4591 6 872.5219 601.4591 44 31.07%
0+ 0 nan nan 737.8283 601.4591 nan 18.48%
0 0 604.1563 8 737.8283 Cuts:5 54 18.12%
0+ 0 nan nan 696.2579 604.1563 nan 13.23%
0 0 616.0250 7 696.2579 Cuts:11 68 11.52%
0+ 0 nan nan 652.5589 616.0250 nan 5.60%
0 0 620.6590 8 652.5589 Cuts:11 81 4.89%
0 0 623.0150 8 652.5589 Cuts:7 89 4.53%
0 0 625.8022 8 652.5589 Cuts:6 103 4.10%
0 2 627.0816 6 652.5589 628.8981 103 3.63%
CPXPARAM_MIP_Cuts_Gomory-Disjunctive:Gomory 2
CPXPARAM_MIP_Cuts_Gomory-Disjunctive:Disjunctive 6
29
Node Left Objective IInf Best_Integer Best_Bound ItCnt Gap
0+ 0 nan nan 941.7205 0.0000 nan 100.00%
0 0 integral 0 596.9704 596.9704 48 0.00%
CPXPARAM_MIP_Cuts_Gomory-Disjunctive:Gomory 0
CPXPARAM_MIP_Cuts_Gomory-Disjunctive:Disjunctive 0
30
Node Left Objective IInf Best_Integer Best_Bound ItCnt Gap
0+ 0 nan nan 941.7205 0.0000 nan 100.00%
0+ 0 nan nan 877.2624 0.0000 nan 100.00%
0 0 601.4591 6 877.2624 601.4591 46 31.44%
0+ 0 nan nan 696.2579 601.4591 nan 13.62%
0 0 603.7062 8 696.2579 Disjcuts:4 55 13.29%
0 0 613.9728 7 696.2579 Cuts:12 72 11.82%
0+ 0 nan nan 652.5589 613.9728 nan 5.91%
0 0 620.5518 7 652.5589 Cuts:11 82 4.90%
0 0 623.9446 8 652.5589 Cuts:7 96 4.38%
0 0 628.3535 8 652.5589 Disjcuts:6 107 3.71%
0 0 cutoff 652.5589 628.3535 107 3.71% 0
CPXPARAM_MIP_Cuts_Gomory-Disjunctive:Gomory 1
CPXPARAM_MIP_Cuts_Gomory-Disjunctive:Disjunctive 7
31
Node Left Objective IInf Best_Integer Best_Bound ItCnt Gap
0+ 0 nan nan 941.7205 0.0000 nan 100.00%
0 0 integral 0 601.4591 601.4591 41 0.00%
CPXPARAM_MIP_Cuts_Gomory-Disjunctive:Gomory 0
CPXPARAM_MIP_Cuts_Gomory-Disjunctive:Disjunctive 0
32
Node Left Objective IInf Best_Integer Best_Bound ItCnt Gap
0+ 0 nan nan 671.2898 0.0000 nan 100.00%
0+ 0 nan nan 538.6067 0.0000 nan 100.00%
0 0 285.1772 7 538.6067 285.1772 48 47.05%
0+ 0 nan nan 527.4518 285.1772 nan 45.93%
0 0 296.8300 9 527.4518 Cuts:7 62 43.72%
0+ 0 nan nan 398.4261 296.8300 nan 25.50%
0 0 311.8492 8 398.4261 Cuts:9 78 21.73%
0+ 0 nan nan 392.1998 311.8492 nan 20.49%
0 0 320.8619 9 392.1998 Cuts:7 89 18.19%
0 0 328.1000 7 392.1998 Cuts:4 103 16.34%
0 0 332.5092 9 392.1998 Cuts:4 112 15.22%
0 0 335.3132 8 392.1998 Cuts:2 122 14.50%
0 0 335.3784 7 392.1998 Cuts:2 124 14.49%
0 2 335.3784 7 392.1998 335.7984 124 14.38%
CPXPARAM_MIP_Cuts_Gomory-Disjunctive:Gomory 1
CPXPARAM_MIP_Cuts_Gomory-Disjunctive:Disjunctive 5
33
Node Left Objective IInf Best_Integer Best_Bound ItCnt Gap
0+ 0 nan nan 671.2898 0.0000 nan 100.00%
0 0 304.9439 1 671.2898 304.9439 48 54.57%
0+ 0 nan nan 305.0518 304.9439 nan 0.04%
0 0 integral 0 304.9870 304.9870 50 0.00%
CPXPARAM_MIP_Cuts_Gomory-Disjunctive:Gomory 0
CPXPARAM_MIP_Cuts_Gomory-Disjunctive:Disjunctive 0
34
Node Left Objective IInf Best_Integer Best_Bound ItCnt Gap
0+ 0 nan nan 671.2898 0.0000 nan 100.00%
0+ 0 nan nan 548.6165 0.0000 nan 100.00%
0 0 304.9439 6 548.6165 304.9439 32 44.42%
0+ 0 nan nan 522.3973 304.9439 nan 41.63%
0 0 307.5007 8 522.3973 Cuts:8 44 41.14%
0+ 0 nan nan 462.2964 307.5007 nan 33.48%
0 0 313.7304 8 462.2964 Cuts:8 59 32.14%
0+ 0 nan nan 441.6085 313.7304 nan 28.96%
0 0 321.4216 7 441.6085 Cuts:7 69 27.22%
0+ 0 nan nan 392.1998 321.4216 nan 18.05%
0 0 329.3930 7 392.1998 Disjcuts:8 77 16.01%
0 0 333.8761 7 392.1998 Cuts:4 86 14.87%
0 0 337.7138 8 392.1998 Disjcuts:1 95 13.89%
0 0 338.2401 7 392.1998 Disjcuts:1 97 13.76%
0 0 338.5977 7 392.1998 Disjcuts:2 102 13.67%
0 2 339.8585 6 392.1998 343.1635 102 12.50%
CPXPARAM_MIP_Cuts_Gomory-Disjunctive:Gomory 0
CPXPARAM_MIP_Cuts_Gomory-Disjunctive:Disjunctive 7
35
Node Left Objective IInf Best_Integer Best_Bound ItCnt Gap
0+ 0 nan nan 671.2898 0.0000 nan 100.00%
0 0 integral 0 363.5184 363.5184 29 0.00%
CPXPARAM_MIP_Cuts_Gomory-Disjunctive:Gomory 0
CPXPARAM_MIP_Cuts_Gomory-Disjunctive:Disjunctive 0
36
Node Left Objective IInf Best_Integer Best_Bound ItCnt Gap
0+ 0 nan nan 758.0328 0.0000 nan 100.00%
0+ 0 nan nan 643.3001 0.0000 nan 100.00%
0 0 431.0120 7 643.3001 431.0120 48 33.00%
0+ 0 nan nan 591.9356 431.0120 nan 27.19%
0 0 434.0791 9 591.9356 Cuts:7 58 26.67%
0 0 439.1996 9 591.9356 Cuts:8 71 25.80%
0+ 0 nan nan 534.0033 439.1996 nan 17.75%
0 0 444.6456 9 534.0033 Cuts:10 82 16.73%
0+ 0 nan nan 497.5652 444.6456 nan 10.64%
0 0 446.6066 9 497.5652 Cuts:7 98 10.24%
0 0 449.5051 9 497.5652 Cuts:4 111 9.66%
0 0 449.8311 9 497.5652 Disjcuts:2 117 9.59%
0 2 450.0970 8 497.5652 450.2439 117 9.51%
CPXPARAM_MIP_Cuts_Gomory-Disjunctive:Gomory 1
CPXPARAM_MIP_Cuts_Gomory-Disjunctive:Disjunctive 9
37
Node Left Objective IInf Best_Integer Best_Bound ItCnt Gap
0+ 0 nan nan 758.0328 0.0000 nan 100.00%
0 0 integral 0 431.0120 431.0120 52 0.00%
CPXPARAM_MIP_Cuts_Gomory-Disjunctive:Gomory 0
CPXPARAM_MIP_Cuts_Gomory-Disjunctive:Disjunctive 0
38
Node Left Objective IInf Best_Integer Best_Bound ItCnt Gap
0+ 0 nan nan 758.0328 0.0000 nan 100.00%
0+ 0 nan nan 644.4799 0.0000 nan 100.00%
0 0 431.2487 6 644.4799 431.2487 42 33.09%
0+ 0 nan nan 591.9356 431.2487 nan 27.15%
0 0 434.3898 8 591.9356 Cuts:5 52 26.62%
0 0 440.0590 9 591.9356 Cuts:15 66 25.66%
0+ 0 nan nan 534.0033 440.0590 nan 17.59%
0 0 444.6999 9 534.0033 Cuts:8 77 16.72%
0+ 0 nan nan 497.5652 444.6999 nan 10.62%
0 0 446.9112 9 497.5652 Cuts:7 88 10.18%
0 0 449.3174 8 497.5652 Cuts:7 99 9.70%
0 2 449.5423 7 497.5652 450.5357 99 9.45%
CPXPARAM_MIP_Cuts_Gomory-Disjunctive:Gomory 4
CPXPARAM_MIP_Cuts_Gomory-Disjunctive:Disjunctive 6
39
Node Left Objective IInf Best_Integer Best_Bound ItCnt Gap
0+ 0 nan nan 758.0328 0.0000 nan 100.00%
0+ 0 nan nan 451.8439 0.0000 nan 100.00%
0 0 cutoff 451.8439 451.8439 34 0.00%
0 0 cutoff 451.8439 451.8439 34 0.00% 0
CPXPARAM_MIP_Cuts_Gomory-Disjunctive:Gomory 0
CPXPARAM_MIP_Cuts_Gomory-Disjunctive:Disjunctive 0
